pure_adt/tip2015_weird_nat_mul2_comm.smt2
(set-logic HORN)
(declare-datatypes ((Nat_458 0)) (((zero_117 ) (succ_114 (p_326 Nat_458)))))
(declare-fun diseqNat_458 (Nat_458 Nat_458) Bool)
(declare-fun p_327 (Nat_458 Nat_458) Bool)
(declare-fun iszero_114 (Nat_458) Bool)
(declare-fun issucc_114 (Nat_458) Bool)
(assert (forall ((x_50323 Nat_458))
	(p_327 x_50323 (succ_114 x_50323))))
(assert (iszero_114 zero_117))
(assert (forall ((x_50325 Nat_458))
	(issucc_114 (succ_114 x_50325))))
(assert (forall ((x_50326 Nat_458))
	(diseqNat_458 zero_117 (succ_114 x_50326))))
(assert (forall ((x_50327 Nat_458))
	(diseqNat_458 (succ_114 x_50327) zero_117)))
(assert (forall ((x_50328 Nat_458) (x_50329 Nat_458))
	(=> (diseqNat_458 x_50328 x_50329)
	    (diseqNat_458 (succ_114 x_50328) (succ_114 x_50329)))))
(declare-fun plus_114 (Nat_458 Nat_458 Nat_458) Bool)
(assert (forall ((x_50298 Nat_458) (z_1628 Nat_458) (y_1822 Nat_458))
	(=> (plus_114 x_50298 z_1628 y_1822)
	    (plus_114 (succ_114 x_50298) (succ_114 z_1628) y_1822))))
(assert (forall ((x_50299 Nat_458))
	(plus_114 x_50299 zero_117 x_50299)))
(declare-fun addacc_15 (Nat_458 Nat_458 Nat_458 Nat_458) Bool)
(assert (forall ((x_50300 Nat_458) (x_50288 Nat_458) (y_1823 Nat_458) (z_1629 Nat_458))
	(=> (addacc_15 x_50300 x_50288 (succ_114 y_1823) z_1629)
	    (addacc_15 x_50300 (succ_114 x_50288) y_1823 z_1629))))
(assert (forall ((x_50302 Nat_458) (x_50289 Nat_458) (z_1629 Nat_458))
	(=> (addacc_15 x_50302 zero_117 x_50289 (succ_114 z_1629))
	    (addacc_15 x_50302 zero_117 (succ_114 x_50289) z_1629))))
(assert (forall ((x_50304 Nat_458))
	(addacc_15 x_50304 zero_117 zero_117 x_50304)))
(declare-fun mul_9 (Nat_458 Nat_458 Nat_458) Bool)
(assert (forall ((x_50305 Nat_458) (x_50306 Nat_458) (x_50307 Nat_458) (x_50291 Nat_458) (z_1630 Nat_458))
	(=>	(and (mul_9 x_50306 z_1630 x_50291)
			(addacc_15 x_50307 z_1630 x_50291 x_50306)
			(plus_114 x_50305 (succ_114 zero_117) x_50307))
		(mul_9 x_50305 (succ_114 z_1630) (succ_114 x_50291)))))
(assert (forall ((z_1630 Nat_458))
	(mul_9 zero_117 (succ_114 z_1630) zero_117)))
(assert (forall ((y_1824 Nat_458))
	(mul_9 zero_117 zero_117 y_1824)))
(assert (forall ((x_50311 Nat_458) (x_50312 Nat_458) (x_50292 Nat_458) (y_1825 Nat_458))
	(=>	(and true
			(diseqNat_458 x_50311 x_50312)
			(mul_9 x_50311 x_50292 y_1825)
			(mul_9 x_50312 y_1825 x_50292))
		false)))
(assert (forall ((x_50313 Nat_458) (x_50314 Nat_458) (x_50315 Nat_458) (x_50316 Nat_458) (x_50293 Nat_458) (y_1826 Nat_458) (z_1631 Nat_458))
	(=>	(and true
			(diseqNat_458 x_50314 x_50316)
			(plus_114 x_50313 y_1826 z_1631)
			(plus_114 x_50314 x_50293 x_50313)
			(plus_114 x_50315 x_50293 y_1826)
			(plus_114 x_50316 x_50315 z_1631))
		false)))
(assert (forall ((x_50317 Nat_458) (x_50318 Nat_458) (x_50294 Nat_458) (y_1827 Nat_458))
	(=>	(and true
			(diseqNat_458 x_50317 x_50318)
			(plus_114 x_50317 x_50294 y_1827)
			(plus_114 x_50318 y_1827 x_50294))
		false)))
(assert (forall ((x_50319 Nat_458) (x_50295 Nat_458))
	(=>	(and true
			(diseqNat_458 x_50319 x_50295)
			(plus_114 x_50319 x_50295 zero_117))
		false)))
(assert (forall ((x_50320 Nat_458) (x_50296 Nat_458))
	(=>	(and true
			(diseqNat_458 x_50320 x_50296)
			(plus_114 x_50320 zero_117 x_50296))
		false)))
(check-sat)
